
<<< setup


<<< generate

Version identifier: 12.10.0.0 | 2019-11-26 | 843d4de2ae
CPXPARAM_TimeLimit                               1200
Tried aggregator 2 times.
MIP Presolve eliminated 5173436 rows and 2939596 columns.
MIP Presolve modified 407700 coefficients.
Aggregator did 1468 substitutions.
Reduced MIP has 75746 rows, 77986 columns, and 475696 nonzeros.
Reduced MIP has 77936 binaries, 0 generals, 0 SOSs, and 0 indicators.
Presolve time = 5.98 sec. (3796.33 ticks)
Found incumbent of value 0.000000 after 7.97 sec. (4678.38 ticks)
Probing time = 0.36 sec. (33.50 ticks)
Tried aggregator 1 time.
Detecting symmetries...
Reduced MIP has 75746 rows, 77986 columns, and 475696 nonzeros.
Reduced MIP has 77936 binaries, 0 generals, 0 SOSs, and 0 indicators.
Presolve time = 0.67 sec. (373.58 ticks)
Probing time = 0.20 sec. (28.42 ticks)
Clique table members: 266353.
MIP emphasis: balance optimality and feasibility.
MIP search method: dynamic search.
Parallel mode: deterministic, using up to 4 threads.
Root relaxation solution time = 7.84 sec. (4223.45 ticks)

        Nodes                                         Cuts/
   Node  Left     Objective  IInf  Best Integer    Best Bound    ItCnt     Gap

*     0+    0                            0.0000   110673.0000              --- 
      0     0   110673.0000   981        0.0000   110673.0000    13648     --- 
      0     0   110673.0000   981        0.0000       Cuts: 5    13700     --- 
      0     0   110673.0000   981        0.0000    Cuts: 6249    27436     --- 
      0     0   110673.0000   981        0.0000     Cuts: 537    35164     --- 
      0     0   110673.0000   981        0.0000    Cuts: 9982    49031     --- 
Heuristic still looking.
Heuristic still looking.
      0     2   110673.0000   366        0.0000   110673.0000    59350     --- 
Elapsed time = 553.64 sec. (362562.44 ticks, tree = 0.02 MB, solutions = 1)
      1     3   110673.0000   601        0.0000   110673.0000    80058     --- 
      2     4   110673.0000   629        0.0000   110673.0000    96047     --- 
      3     4   110673.0000   679        0.0000   110673.0000    93237     --- 
      4     5   110673.0000   712        0.0000   110673.0000   108266     --- 
      5     7   110673.0000   794        0.0000   110673.0000   126869     --- 
      6     8   110673.0000   873        0.0000   110673.0000   130483     --- 
      7     6   110673.0000   697        0.0000   110673.0000   124378     --- 
      9    10   110673.0000   872        0.0000   110673.0000   134431     --- 
     10    11   110673.0000   867        0.0000   110673.0000   134891     --- 
     13    14   110673.0000   892        0.0000   110673.0000   143848     --- 
Elapsed time = 700.84 sec. (437612.76 ticks, tree = 0.28 MB, solutions = 1)
     15     9   110673.0000   976        0.0000   110673.0000   162812     --- 
     17    17   110673.0000   916        0.0000   110673.0000   150935     --- 
     19    18   110673.0000   990        0.0000   110673.0000   153608     --- 
     21    11   110673.0000   982        0.0000   110673.0000   166679     --- 
     22    19   110673.0000   877        0.0000   110673.0000   153636     --- 
     23    20   110673.0000   847        0.0000   110673.0000   154334     --- 
     25    21   110673.0000   923        0.0000   110673.0000   157683     --- 
     27    24   110673.0000   842        0.0000   110673.0000   188176     --- 
     28    11   110673.0000  1057        0.0000   110673.0000   186726     --- 
     31    12   110673.0000  1083        0.0000   110673.0000   187525     --- 
Elapsed time = 732.84 sec. (450743.22 ticks, tree = 0.16 MB, solutions = 1)
     33    28   110673.0000   975        0.0000   110673.0000   195378     --- 
     35    30   110673.0000   835        0.0000   110673.0000   197365     --- 
     37    32   110673.0000   749        0.0000   110673.0000   198504     --- 
     38    33   110673.0000   796        0.0000   110673.0000   200966     --- 
     41    13   110673.0000  1057        0.0000   110673.0000   187537     --- 
     43    44   110673.0000   913        0.0000   110673.0000   282907     --- 
     45    39   110673.0000  1021        0.0000   110673.0000   256143     --- 
     46    40   110673.0000   895        0.0000   110673.0000   257589     --- 
     47    41   110673.0000   962        0.0000   110673.0000   258901     --- 
     50    43   110673.0000   893        0.0000   110673.0000   259768     --- 
Elapsed time = 778.50 sec. (470391.96 ticks, tree = 2.60 MB, solutions = 1)
     51    46   110673.0000   953        0.0000   110673.0000   305096     --- 
     55    47   110673.0000   956        0.0000   110673.0000   306465     --- 
     58    49   110673.0000   887        0.0000   110673.0000   307924     --- 
     60    47   110673.0000   895        0.0000   110673.0000   294230     --- 
     62    49   110673.0000   920        0.0000   110673.0000   295730     --- 
     66    58   110673.0000   826        0.0000   110673.0000   323403     --- 
     70    60   110673.0000   846        0.0000   110673.0000   324091     --- 
     72    61   110673.0000   864        0.0000   110673.0000   325456     --- 
     74    54   110673.0000   829        0.0000   110673.0000   313195     --- 
     76    35   110673.0000   782        0.0000   110673.0000   204234     --- 
Elapsed time = 813.16 sec. (485066.94 ticks, tree = 2.82 MB, solutions = 1)
     82    67   110673.0000   817        0.0000   110673.0000   328456     --- 
     86    67   110673.0000   896        0.0000   110673.0000   337188     --- 
     91    69   110673.0000   783        0.0000   110673.0000   330340     --- 
     93    70   110673.0000   816        0.0000   110673.0000   331321     --- 
     95    63   110673.0000   707        0.0000   110673.0000   330888     --- 
    101    66   110673.0000   723        0.0000   110673.0000   332345     --- 
    107    84   110673.0000   737        0.0000   110673.0000   344140     --- 
    108    85   110673.0000   754        0.0000   110673.0000   345039     --- 
    110    87   110673.0000   740        0.0000   110673.0000   345765     --- 
    113    88   110673.0000   738        0.0000   110673.0000   346641     --- 
Elapsed time = 842.20 sec. (497545.98 ticks, tree = 4.48 MB, solutions = 1)
    116    51   110673.0000   885        0.0000   110673.0000   308655     --- 
    121   102   110673.0000   735        0.0000   110673.0000   360163     --- 
    125    88   110673.0000   813        0.0000   110673.0000   350578     --- 
    129   104   110673.0000   764        0.0000   110673.0000   362483     --- 
    133    96   110673.0000   640        0.0000   110673.0000   351562     --- 
    137    92   110673.0000   858        0.0000   110673.0000   353118     --- 
    139    94   110673.0000   790        0.0000   110673.0000   353821     --- 
    144    95   110673.0000   818        0.0000   110673.0000   354914     --- 
    147   119   110673.0000   609        0.0000   110673.0000   372036     --- 
    149   118    infeasible              0.0000   110673.0000   372979     --- 
Elapsed time = 868.55 sec. (509869.06 ticks, tree = 6.31 MB, solutions = 1)
    155   100   110673.0000   781        0.0000   110673.0000   356958     --- 
    157   112   110673.0000   655        0.0000   110673.0000   370303     --- 
    160   113   110673.0000   657        0.0000   110673.0000   371177     --- 
    165   120   110673.0000   744        0.0000   110673.0000   377790     --- 
    172   160   110673.0000   863        0.0000   110673.0000   405302     --- 
    182   125   110673.0000   587        0.0000   110673.0000   379135     --- 
    184   155   110673.0000   766        0.0000   110673.0000   396507     --- 
    189   158   110673.0000   739        0.0000   110673.0000   397154     --- 
    191   129   110673.0000   626        0.0000   110673.0000   380982     --- 
    193   130   110673.0000   605        0.0000   110673.0000   381834     --- 
Elapsed time = 893.17 sec. (520803.75 ticks, tree = 6.73 MB, solutions = 1)
    194   131   110673.0000   587        0.0000   110673.0000   382633     --- 
    197   132   110673.0000   657        0.0000   110673.0000   383564     --- 
    204   166   110673.0000   876        0.0000   110673.0000   417178     --- 
    207   172   110673.0000   649        0.0000   110673.0000   417424     --- 
    213   168   110673.0000   896        0.0000   110673.0000   422126     --- 
    218   169   110673.0000   861        0.0000   110673.0000   425116     --- 
    221   175    infeasible              0.0000   110673.0000   427350     --- 
    226   170   110673.0000   819        0.0000   110673.0000   430809     --- 
    231   208   110673.0000   910        0.0000   110673.0000   459241     --- 
    236   210   110673.0000   844        0.0000   110673.0000   462949     --- 
Elapsed time = 917.14 sec. (532695.30 ticks, tree = 17.41 MB, solutions = 1)
    245   195   110673.0000   718        0.0000   110673.0000   428682     --- 
    251   197   110673.0000   729        0.0000   110673.0000   430350     --- 
    257   200   110673.0000   721        0.0000   110673.0000   431658     --- 
    265   189   110673.0000   714        0.0000   110673.0000   430391     --- 
    271   182   110673.0000   650        0.0000   110673.0000   450682     --- 
    275   181    infeasible              0.0000   110673.0000   454558     --- 
    281   203   110673.0000   740        0.0000   110673.0000   441315     --- 
    285   222   110673.0000   630        0.0000   110673.0000   499272     --- 
    291   226   110673.0000   788        0.0000   110673.0000   496412     --- 
    294   224   110673.0000   633        0.0000   110673.0000   503632     --- 
Elapsed time = 943.41 sec. (544203.93 ticks, tree = 19.11 MB, solutions = 1)
    302   228   110673.0000   742        0.0000   110673.0000   503057     --- 
    307   230   110673.0000   672        0.0000   110673.0000   509111     --- 
    309   236   110673.0000   720        0.0000   110673.0000   526868     --- 
    312   233   110673.0000   583        0.0000   110673.0000   513401     --- 
    316   233    infeasible              0.0000   110673.0000   516818     --- 
    321   238    infeasible              0.0000   110673.0000   533961     --- 
    326   237   110673.0000   559        0.0000   110673.0000   521197     --- 
    336   249   110673.0000   675        0.0000   110673.0000   568156     --- 
    340   251   110673.0000   666        0.0000   110673.0000   571169     --- 
    355   266   110673.0000   551        0.0000   110673.0000   601262     --- 
Elapsed time = 974.80 sec. (559440.33 ticks, tree = 22.37 MB, solutions = 1)
    371   266    infeasible              0.0000   110673.0000   607633     --- 
    378   231   110673.0000   790        0.0000   110673.0000   507190     --- 
    389   265    infeasible              0.0000   110673.0000   614450     --- 
    404   296   110673.0000   680        0.0000   110673.0000   692165     --- 
    428   301   110673.0000   747        0.0000   110673.0000   705559     --- 
    449   306   110673.0000   696        0.0000   110673.0000   724196     --- 
    470   325   110673.0000   537        0.0000   110673.0000   781551     --- 
    485   299    infeasible              0.0000   110673.0000   730750     --- 
    494   338   110673.0000   599        0.0000   110673.0000   843630     --- 
    508   329    infeasible              0.0000   110673.0000   868750     --- 
Elapsed time = 1068.16 sec. (601602.37 ticks, tree = 28.47 MB, solutions = 1)
    515   337   110673.0000   584        0.0000   110673.0000   902509     --- 
    526   339    infeasible              0.0000   110673.0000   905927     --- 
    539   325    infeasible              0.0000   110673.0000   875945     --- 
    544   347    infeasible              0.0000   110673.0000   997677     --- 
    550   346    infeasible              0.0000   110673.0000  1010604     --- 
    551   345    infeasible              0.0000   110673.0000  1002292     --- 
    553   345    infeasible              0.0000   110673.0000  1011604     --- 
    558   355   110673.0000   603        0.0000   110673.0000  1038538     --- 

Clique cuts applied:  3
Implied bound cuts applied:  1220
Flow cuts applied:  36
Mixed integer rounding cuts applied:  52

Root node processing (before b&c):
  Real time             =  542.41 sec. (357818.95 ticks)
Parallel b&c, 4 threads:
  Real time             =  658.03 sec. (281297.91 ticks)
  Sync time (average)   =   87.42 sec.
  Wait time (average)   =    0.00 sec.
                          ------------
Total (root+branch&cut) = 1200.44 sec. (639116.87 ticks)

<<< solve


OBJECTIVE: 0

<<< post process


<<< done

